24141,
23008,
22946,
22521,
21513,
21513,
21143,
20381,
20185,
18712,
18712,
18650,
18434,
18209,
18106,
17976,
17303,
17147,
16967,
16920,
16650,
16445,
16442,
16339,
16303,
16224,
16224,
16189,
16180,
16174,
16174,
16174,
16174,
16174,
16174,
16061,
16061,
16061,
16061,
16061,
16061,
16061,
16061,
16061,
16061,
16061,
16061,
16003,
16003,
16003,
16003,
16003,
16003,
16003,
16003,
15916,
15916,
15916,
15916,
15916,
15916,
15916,
15916,
15916,
15916,
15916,
15916,
15916,
15916,
15916,
15916,
15871,
15871,
15871,
15871,
15871,
15871,
15871,
15546,
15546,
15546,
15470,
15470,
15470,
15470,
15470,
15470,
15470,
15470,
15470,
15470,
15470,
15470,
15470,
15383,
15383,
15383,
15383,
15383,
15383,
15383,
15383,
15383,
15383,
15383,
15383,
15383,
15383,
15375,
15246,
15238,
15238,
15238,
15238,
15238,
15238,
15238,
15238,
15238,
15238,
15238,
15238,
15238,
15238,
15238,
15238,
15113,
15113,
15113,
15075,
15075,
15075,
15075,
15075,
15075,
15075,
15075,
15075,
15075,
15075,
15075,
15075,
14999,
14999,
14999,
14999,
14999,
14999,
14999,
14999,
14999,
14999,
14999,
14933,
14933,
14933,
14933,
14933,
14933,
14933,
14933,
14933,
14788,
14788,
14788,
14788,
14788,
14788,
14788,
14788,
14788,
14788,
14788,
14788,
14788,
14788,
14705,
14705,
14705,
14705,
14122,
14122,
14122,
14122,
14122,
14122,
14122,
14122,
14122,
14122,
14122,
14122,
14122,
14122,
14122,
14122,
14122,
14122,
14122,
14122,
14122,
14122,
14122,
14122,
14122,
14122,
14122,
14122,
14122,
14122,
14122,
14122,
14122,
14122,
14122,
14122,
14122,
14122,
14122,
14122,
14122,
14122,
14122,
14122,
14122,
14122,
14122,
14122,
14122,
14122,
14122,
14122,
14122,
14122,
14122,
14122,
14122,
14122,
14122,
14122,
14122,
14122,
14122,
14122,
14122,
14122,
14122,
14122,
14122,
14122,
14122,
14122,
14122,
14122,
14122,
14122,
14122,
14122,
14122,
14122,
14095,
14095,
14095,
14095,
14095,
14095,
14095,
14095,
14095,
14095,
14095,
14095,
14095,
13982,
13982,
13982,
13982,
13982,
13982,
13982,
13982,
13982,
13982,
13982,
13982,
13982,
13982,
13982,
13982,
13982,
13982,
13938,
13938,
13938,
13938,
13938,
13938,
13938,
13938,
13938,
13938,
13938,
13938,
13938,
13938,
13938,
13938,
13938,
13938,
13938,
13938,
13938,
13938,
13938,
13938,
13938,
13938,
13938,
13938,
13938,
13938,
13938,
13938,
13938,
13938,
13938,
13938,
13938,
13842,
13842,
13842,
13842,
13746,
13746,
13593,
13497,
13497,
13497,
13497,
13497,
13497,
13497,
13497,
13497,
13497,
13497,
13497,
13497,
13497,
13497,
13497,
13497,
13497,
13497,
13497,
13497,
13497,
13497,
13497,
13497,
13497,
13497,
13497,
13497,
13497,
13497,
13497,
13497,
13497,
13497,
13497,
13497,
13497,
13425,
13425,
13425,
13425,
13425,
13425,
13425,
13425,
13425,
13425,
13425,
13425,
13425,
13425,
13425,
13425,
13425,
13425,
13425,
13425,
13425,
13425,
13425,
13425,
13425,
13425,
13425,
13425,
13425,
13425,
13424,
13424,
13424,
13424,
13424,
13424,
13424,
13424,
13424,
13424,
13424,
13424,
13424,
13424,
13424,
13424,
13424,
13424,
13424,
13424,
13424,
13424,
13424,
13424,
13424,
13424,
13424,
13424,
13424,
13424,
13424,
13424,
13424,
13424,
13424,
13424,
13424,
13424,
13424,
13424,
13424,
13424,
13424,
13424,
13424,
13424,
13424,
13424,
13424,
13424,
13424,
13424,
13424,
13424,
13424,
13424,
13424,
13424,
13424,
13424,
13424,
13424,
13424,
13424,
13424,
13424,
13424,
13424,
13424,
13424,
13424,
13424,
13424,
13424,
13424,
13424,
13424,
13424,
13424,
13424,
13424,
13424,
13424,
13424,
13424,
13424,
13424,
13424,
13424,
13424,
13424,
13424,
13424,
13424,
13424,
13424,
13424,
13424,
13424,
13424,
13424,
13424,
13424,
13424,
13424,
13424,
13424,
13424,
13424,
13424,
13424,
13424,
13424,
13424,
13424,
13424,
13424,
13424,
13424,
13424,
13424,
13424,
13424,
13424,
13424,
13424,
13424,
13424,
13341,
13341,
13341,
13341,
13341,
13341,
13341,
13341,
13341,
13341,
13341,
13341,
13341,
13341,
13341,
13341,
13341,
13341,
13341,
13300,
13300,
13300,
13300,
13290,
13290,
13290,
13290,
13290,
13290,
13290,
13290,
13290,
13290,
13290,
13290,
13290,
13290,
13290,
13290,
13290,
13290,
13290,
13290,
13290,
13290,
13290,
13290,
13290,
13211,
13211,
13211,
13211,
13211,
13211,
13211,
13211,
13211,
13211,
13211,
13211,
13211,
13211,
13211,
13211,
13211,
13211,
13211,
13211,
13211,
13211,
13211,
13211,
13211,
13211,
13211,
13211,
13211,
13211,
13211,
13211,
13211,
13211,
13211,
13211,
13211,
13211,
13211,
13211,
13211,
13211,
13211,
13211,
13211,
13211,
13211,
13211,
13211,
13211,
13211,
13211,
13211,
13211,
13211,
13211,
13211,
13211,
13211,
13211,
13211,
13211,
13211,
13211,
13211,
13211,
13211,
13211,
13211,
13211,
13211,
13211,
13211,
13211,
13201,
13201,
13201,
13201,
13201,
13201,
13201,
13201,
13201,
13201,
13201,
13201,
13201,
13201,
13201,
13201,
13201,
13201,
13201,
13201,
13201,
13201,
13201,
13201,
13201,
13201,
13201,
13201,
13201,
13201,
13201,
13201,
13201,
13201,
13201,
13201,
13201,
13201,
13201,
13201,
13201,
13201,
13201,
13201,
13201,
13201,
13201,
13201,
13201,
13201,
13201,
13201,
13201,
13201,
13201,
13201,
13201,
13201,
13201,
13201,
13201,
13201,
13201,
13201,
13201,
13201,
13201,
13201,
13201,
13201,
13201,
13201,
13201,
13201,
13201,
13190,
13190,
13190,
13190,
13190,
13190,
13190,
13190,
13190,
13190,
13190,
13190,
13190,
13190,
13190,
13190,
13190,
13190,
13190,
13190,
13190,
13190,
13190,
13190,
13190,
13190,
13190,
13190,
13190,
13190,
13190,
13190,
13190,
13190,
13190,
13190,
13190,
13190,
13190,
13190,
13190,
13190,
13190,
13190,
13190,
13190,
13190,
13190,
13190,
13190,
13190,
13190,
13190,
13190,
13190,
13190,
13190,
13190,
13190,
13190,
13190,
13190,
13190,
13190,
13190,
13190,
13190,
13190,
13190,
13190,
13190,
13190,
13190,
13190,
13190,
13190,
13190,
13190,
13190,
13190,
13190,
13190,
13190,
13190,
13190,
13190,
13190,
13190,
13190,
13190,
13190,
13190,
13190,
13190,
13190,
13190,
13190,
13190,
13190,
13190,
13190,
13190,
13190,
13190,
13190,
13190,
13190,
13190,
13190,
13190,
13190,
13190,
13190,
13190,
13190,
13190,
13190,
13190,
13190,
13190,
13190,
13190,
13190,
13190,
13190,
13190,
13190,
13190,
13190,
13190,
13190,
13190,
13190,
13190,
13190,
13190,
13190,
13190,
13190,
13190,
13190,
13190,
13190,
13190,
13190,
13190,
13190,
13190,
13190,
13190,
13190,
13190,
13190,
13190,
13190,
13190,
13190,
13190,
13190,
13190,
13190,
13190,
13190,
13190,
13190,
13190,
13190,
13190,
13190,
13190,
13190,
13190,
13190,
13190,
13190,
13190,
13162,
13162,
13162,
13115,
13115,
13115,
13089,
13089,
13089,
13089,
13089,
13089,
13089,
13089,
13089,
13089,
13089,
13089,
13089,
13089,
13089,
12974,
12974,
12974,
12974,
12974,
12974,
12974,
12974,
12974,
12974,
12974,
12974,
12925,
12925,
12925,
12925,
12925,
12925,
12925,
12925,
12925,
12925,
12925,
12925,
12925,
12925,
12925,
12925,
12925,
12925,
12925,
12925,
12925,
12925,
12925,
12925,
12925,
12925,
12925,
12925,
12925,
12925,
12925,
12925,
12925,
12925,
12925,
12925,
12925,
12925,
12925,
12925,
12925,
12925,
12925,
12925,
12925,
12925,
12925,
12925,
12925,
12925,
12925,
12925,
12925,
12925,
12925,
12925,
12925,
12925,
12925,
12925,
12925,
12925,
12925,
12925,
12925,
12925,
12925,
12925,
12925,
12925,
12925,
12925,
12925,
12925,
12925,
12925,
12925,
12925,
12925,
12925,
12925,
12925,
12925,
12925,
12925,
12925,
12925,
12925,
12925,
12925,
12925,
12925,
12925,
12925,
12925,
12925,
12925,
12925,
12925,
12925,
12925,
12925,
12925,
12925,
12925,
12925,
12925,
12925,
12925,
12925,
12925,
12925,
12925,
12925,
12925,
12925,
12925,
12925,
12925,
12925,
12925,
12925,
12925,
12925,
12925,
12925,
12925,
12925,
12925,
12925,
12925,
12925,
12925,
12925,
12925,
12925,
12925,
12925,
12925,
12925,
12925,
12925,
12925,
12925,
12925,
12925,
12925,
12925,
12925,
12925,
12925,
12925,
12925,
12925,
12925,
12925,
12925,
12925,
12925,
12925,
12925,
12925,
12919,
12919,
12919,
12919,
12919,
12919,
12919,
12919,
12919,
12919,
12919,
12919,
12919,
12919,
12919,
12919,
12919,
12919,
12919,
12919,
12919,
12919,
12919,
12919,
12919,
12919,
12919,
12919,
12919,
12919,
12919,
12919,
12919,
12919,
12919,
12919,
12919,
12919,
12881,
12881,
12881,
12881,
12881,
12881,
12881,
12881,
12881,
12881,
12881,
12881,
12881,
12881,
12881,
12881,
12881,
12881,
12881,
12881,
12881,
12881,
12881,
12881,
12881,
12881,
12881,
12881,
12881,
12881,
12881,
12881,
12881,
12881,
12881,
12881,
12881,
12881,
12881,
12881,
12881,
12881,
12881,
12881,
12881,
12881,
12881,
12881,
12881,
12881,
12881,
12881,
12881,
12881,
12881,
12881,
12881,
12881,
12881,
12881,
12881,
12881,
12881,
12881,
12881,
12881,
12881,
12881,
12881,
12881,
12881,
12881,
12881,
12881,
12881,
12881,
12881,
12881,
12881,
12881,
12881,
12881,
12881,
12881,
12881,
12881,
12881,
12881,
12881,
12881,
12881,
12881,
12881,
12881,
12881,
12881,
12881,
12881,
12881,
12881,
12881,
12881,
12881,
12881,
12881,
12881,
12881,
12881,
12881,
12881,
12881,
12881,
12881,
12881,
12881,
12881,
12881,
12881,
12881,
12881,
12881,
12881,
12881,
12881,
12881,
12881,
12881,
12881,
12881,
12881,
12881,
12881,
12881,
12881,
12881,
12881,
12881,
12881,
12881,
12881,
12881,
12881,
12881,
12881,
12881,
12881,
12881,
12881,
12881,
12881,
12881,
12881,
12881,
12881,
12881,
12881,
12881,
12881,
12881,
12881,
12881,
12881,
12881,
12881,
12881,
12881,
12881,
12881,
12881,
12881,
12881,
12881,
12881,
12881,
12881,
12881,
12881,
12881,
12881,
12881,
12881,
12881,
12881,
12881,
12881,
12881,
12881,
12881,
12881,
12881,
12881,
12881,
12881,
12881,
12881,
12881,
12881,
12881,
12844,
12844,
12844,
12844,
12844,
12844,
12844,
12844,
12844,
12844,
12844,
12844,
12844,
12844,
12844,
12844,
12844,
12844,
12844,
12844,
12844,
12844,
12844,
12844,
12844,
12844,
12844,
12844,
12844,
12844,
12844,
12844,
12844,
12844,
12844,
12844,
12844,
12844,
12844,
12844,
12844,
12844,
12844,
12844,
12844,
12844,
12844,
12844,
12844,
12844,
12844,
12844,
12844,
12844,
12844,
12844,
12844,
12844,
12844,
12844,
12844,
12844,
12844,
12844,
12844,
12844,
12844,
12844,
12844,
12844,
12844,
12844,
12844,
12844,
12844,
12844,
12844,
12844,
12844,
12844,
12844,
12844,
12844,
12844,
12844,
12844,
12844,
12844,
12844,
12844,
12844,
12844,
12844,
12844,
12844,
12844,
12844,
12844,
12844,
12844,
12844,
12844,
12844,
12844,
12844,
12844,
12844,
12844,
12844,
12844,
12844,
12844,
12844,
12844,
12844,
12844,
12844,
12844,
12844,
12844,
12844,
12844,
12844,
12844,
12844,
12844,
12844,
12844,
12844,
12844,
12844,
12844,
12844,
12844,
12844,
12844,
12844,
12844,
12844,
12844,
12844,
12844,
12844,
12844,
12844,
12844,
12844,
12844,
12844,
12844,
12844,
12844,
12844,
12844,
12844,
12844,
12844,
12844,
12844,
12844,
12844,
12844,
12844,
12844,
12844,
12844,
1,
